0 3200 
1 3196 
2 3180 
3 3174 
4 3170 
5 3160 
6 3148 
7 3132 
8 3130 
9 3126 
10 3110 
11 3108 
12 3100 
13 3096 
14 3092 
15 3088 
16 3084 
17 3078 
18 3062 
19 3054 
20 3024 
21 3000 
22 2996 
23 2988 
24 2980 
25 2976 
26 2964 
27 2960 
28 2956 
29 2952 
30 2948 
31 2940 
32 2934 
33 2932 
34 2932 
35 2916 
36 2904 
37 2890 
38 2882 
39 2868 
40 2864 
41 2860 
42 2848 
43 2844 
44 2830 
45 2826 
46 2822 
47 2814 
48 2806 
49 2804 
50 2782 
51 2778 
52 2770 
53 2766 
54 2762 
55 2758 
56 2748 
57 2744 
58 2744 

